# Solution for model obj
# Objective value = 60
x#1 1
x#2 1
x#3 0
x#4 1
x#5 1
x#6 1
x#7 1
x#8 1
x#9 1
x#10 0
x#11 1
x#12 1
x#13 1
x#14 1
x#15 0
x#16 1
x#17 1
x#18 0
x#19 1
x#20 1
x#21 1
x#22 1
x#23 0
x#24 1
x#25 1
x#26 1
x#27 1
x#28 1
x#29 1
x#30 0
x#31 0
x#32 1
x#33 1
x#34 1
x#35 1
x#36 1
x#37 0
x#38 1
x#39 1
x#40 0
x#41 0
x#42 1
x#43 1
x#44 1
x#45 0
x#46 1
x#47 1
x#48 1
x#49 0
x#50 1
x#51 1
x#52 1
x#53 0
x#54 1
x#55 1
x#56 0
x#57 0
x#58 0
x#59 1
x#60 1
x#61 0
x#62 0
x#63 0
x#64 1
x#65 0
x#66 1
x#67 0
x#68 0
x#69 1
x#70 0
x#71 1
x#72 0
x#73 1
x#74 1
x#75 0
x#76 0
x#77 1
x#78 0
x#79 0
x#80 0
x#81 0
x#82 1
x#83 0
x#84 0
x#85 0
x#86 0
x#87 1
x#88 0
x#89 0
x#90 0
x#91 1
x#92 0
x#93 0
x#94 0
x#95 0
x#96 1
x#97 0
x#98 0
x#99 0
x#100 0
x#101 1
x#102 1
x#103 0
x#104 0
x#105 1
x#106 0
x#107 0
x#108 1
x#109 0
x#110 0
x#111 0
x#112 0
x#113 0
x#114 0
x#115 0
x#116 0
x#117 0
x#118 0
x#119 0
x#120 1
x#121 0
x#122 0
x#123 0
